10 20

11 12 16 10 8 5 12 6 17 7
11 2 4 2 16 3 8 4 6 12
11 9 2 10 9 7 7 7 3 4
6 10 11 2 5 14 3 10
6 14 5 7 12 6 20 9 10 11
7 3 12 5 4 13 16 8 2 6 15 7
1 4 15 13 14 15 2 10 8 15 12 14
15 7 3 14 11 3 19 12
6 7 5 8 10 6 3 13 15 2
7 8 20 7 16 8 10 5 18 3
